c Generated map
c Size: 12 * 12, weights in range: 1 to 10, walls: True, with ratio 0.05
c dim 3 of 5
c
p sp 144 239
c graph contains 144 nodes and 239 arcs
c
a 1 2 1
a 2 1 1
a 2 14 9
a 14 2 9
a 2 3 6
a 3 2 6
a 3 15 2
a 15 3 2
a 3 4 8
a 4 3 8
a 4 16 8
a 16 4 8
a 4 5 4
a 5 4 4
a 5 17 3
a 17 5 3
a 5 6 3
a 6 5 3
a 6 18 5
a 18 6 5
a 6 7 4
a 7 6 4
a 7 8 6
a 8 7 6
a 8 20 2
a 20 8 2
a 8 9 1
a 9 8 1
a 9 21 6
a 21 9 6
a 9 10 8
a 10 9 8
a 10 11 2
a 11 10 2
a 11 23 2
a 23 11 2
a 11 12 7
a 12 11 7
a 12 24 4
a 24 12 4
a 14 26 8
a 26 14 8
a 14 15 1
a 15 14 1
a 15 27 4
a 27 15 4
a 15 16 3
a 16 15 3
a 16 28 3
a 28 16 3
a 16 17 2
a 17 16 2
a 17 29 8
a 29 17 8
a 17 18 5
a 18 17 5
a 18 30 5
a 30 18 5
a 20 32 3
a 32 20 3
a 20 21 6
a 21 20 6
a 21 33 4
a 33 21 4
a 23 35 7
a 35 23 7
a 23 24 9
a 24 23 9
a 24 36 7
a 36 24 7
a 25 26 3
a 26 25 3
a 26 38 2
a 38 26 2
a 26 27 10
a 27 26 10
a 27 39 4
a 39 27 4
a 27 28 10
a 28 27 10
a 28 40 3
a 40 28 3
a 28 29 5
a 29 28 5
a 29 41 3
a 41 29 3
a 29 30 9
a 30 29 9
a 30 42 10
a 42 30 10
a 30 31 8
a 31 30 8
a 31 43 2
a 43 31 2
a 31 32 5
a 32 31 5
a 32 44 5
a 44 32 5
a 32 33 8
a 33 32 8
a 33 45 8
a 45 33 8
a 33 34 6
a 34 33 6
a 34 46 4
a 46 34 4
a 34 35 1
a 35 34 1
a 35 47 8
a 47 35 8
a 35 36 8
a 36 35 8
a 36 48 6
a 48 36 6
a 38 50 6
a 50 38 6
a 38 39 1
a 39 38 1
a 39 51 6
a 51 39 6
a 39 40 3
a 40 39 3
a 40 52 4
a 52 40 4
a 40 41 6
a 41 40 6
a 41 53 5
a 53 41 5
a 41 42 9
a 42 41 9
a 42 54 1
a 54 42 1
a 42 43 8
a 43 42 8
a 43 55 2
a 55 43 2
a 43 44 10
a 44 43 10
a 44 56 3
a 56 44 3
a 44 45 2
a 45 44 2
a 45 57 10
a 57 45 10
a 45 46 5
a 46 45 5
a 46 58 2
a 58 46 2
a 46 47 8
a 47 46 8
a 47 59 1
a 59 47 1
a 47 48 8
a 48 47 8
a 48 60 1
a 60 48 1
a 49 61 3
a 61 49 3
a 49 50 10
a 50 49 10
a 50 62 6
a 62 50 6
a 50 51 3
a 51 50 3
a 51 63 10
a 63 51 10
a 51 52 5
a 52 51 5
a 52 64 3
a 64 52 3
a 52 53 7
a 53 52 7
a 53 65 6
a 65 53 6
a 53 54 1
a 54 53 1
a 54 66 7
a 66 54 7
a 54 55 8
a 55 54 8
a 55 67 1
a 67 55 1
a 55 56 8
a 56 55 8
a 56 68 7
a 68 56 7
a 56 57 2
a 57 56 2
a 57 69 5
a 69 57 5
a 57 58 9
a 58 57 9
a 58 70 7
a 70 58 7
a 58 59 7
a 59 58 7
a 59 71 10
a 71 59 10
a 59 60 1
a 60 59 1
a 60 72 7
a 72 60 7
a 61 73 9
a 73 61 9
a 61 62 5
a 62 61 5
a 62 74 10
a 74 62 10
a 62 63 6
a 63 62 6
a 63 75 3
a 75 63 3
a 63 64 8
a 64 63 8
a 64 76 9
a 76 64 9
a 64 65 7
a 65 64 7
a 65 77 7
a 77 65 7
a 65 66 10
a 66 65 10
a 66 78 10
a 78 66 10
a 66 67 5
a 67 66 5
a 67 79 4
a 79 67 4
a 67 68 4
a 68 67 4
a 68 80 3
a 80 68 3
a 68 69 4
a 69 68 4
a 69 81 8
a 81 69 8
a 69 70 2
a 70 69 2
a 70 82 5
a 82 70 5
a 70 71 5
a 71 70 5
a 71 83 8
a 83 71 8
a 71 72 9
a 72 71 9
a 72 84 2
a 84 72 2
a 73 85 8
a 85 73 8
a 73 74 3
a 74 73 3
a 74 86 2
a 86 74 2
a 74 75 2
a 75 74 2
a 75 87 6
a 87 75 6
a 75 76 1
a 76 75 1
a 76 88 2
a 88 76 2
a 76 77 6
a 77 76 6
a 77 89 10
a 89 77 10
a 77 78 10
a 78 77 10
a 78 90 7
a 90 78 7
a 78 79 1
a 79 78 1
a 79 91 8
a 91 79 8
a 79 80 5
a 80 79 5
a 80 92 9
a 92 80 9
a 80 81 5
a 81 80 5
a 81 93 9
a 93 81 9
a 81 82 5
a 82 81 5
a 82 83 5
a 83 82 5
a 83 95 3
a 95 83 3
a 83 84 5
a 84 83 5
a 84 96 7
a 96 84 7
a 85 97 4
a 97 85 4
a 85 86 4
a 86 85 4
a 86 98 8
a 98 86 8
a 86 87 3
a 87 86 3
a 87 99 9
a 99 87 9
a 87 88 7
a 88 87 7
a 88 100 1
a 100 88 1
a 88 89 1
a 89 88 1
a 89 101 7
a 101 89 7
a 89 90 6
a 90 89 6
a 90 102 10
a 102 90 10
a 90 91 8
a 91 90 8
a 91 103 1
a 103 91 1
a 91 92 2
a 92 91 2
a 92 104 10
a 104 92 10
a 92 93 2
a 93 92 2
a 93 105 3
a 105 93 3
a 95 107 1
a 107 95 1
a 95 96 9
a 96 95 9
a 96 108 8
a 108 96 8
a 97 109 9
a 109 97 9
a 97 98 2
a 98 97 2
a 98 110 5
a 110 98 5
a 98 99 1
a 99 98 1
a 99 100 4
a 100 99 4
a 100 112 10
a 112 100 10
a 100 101 3
a 101 100 3
a 101 113 5
a 113 101 5
a 101 102 4
a 102 101 4
a 102 114 10
a 114 102 10
a 102 103 10
a 103 102 10
a 103 115 4
a 115 103 4
a 103 104 6
a 104 103 6
a 104 116 5
a 116 104 5
a 104 105 9
a 105 104 9
a 105 117 5
a 117 105 5
a 105 106 7
a 106 105 7
a 106 118 1
a 118 106 1
a 106 107 8
a 107 106 8
a 107 119 10
a 119 107 10
a 107 108 2
a 108 107 2
a 108 120 8
a 120 108 8
a 109 121 4
a 121 109 4
a 109 110 6
a 110 109 6
a 110 122 9
a 122 110 9
a 112 124 9
a 124 112 9
a 112 113 5
a 113 112 5
a 113 125 9
a 125 113 9
a 113 114 9
a 114 113 9
a 114 126 10
a 126 114 10
a 114 115 6
a 115 114 6
a 115 127 2
a 127 115 2
a 115 116 1
a 116 115 1
a 116 128 7
a 128 116 7
a 116 117 5
a 117 116 5
a 117 129 3
a 129 117 3
a 117 118 2
a 118 117 2
a 118 130 7
a 130 118 7
a 118 119 4
a 119 118 4
a 119 131 8
a 131 119 8
a 119 120 10
a 120 119 10
a 120 132 10
a 132 120 10
a 121 133 3
a 133 121 3
a 121 122 4
a 122 121 4
a 122 134 2
a 134 122 2
a 122 123 7
a 123 122 7
a 123 135 3
a 135 123 3
a 123 124 10
a 124 123 10
a 124 136 7
a 136 124 7
a 124 125 3
a 125 124 3
a 125 137 6
a 137 125 6
a 125 126 9
a 126 125 9
a 126 138 5
a 138 126 5
a 126 127 7
a 127 126 7
a 127 139 8
a 139 127 8
a 127 128 2
a 128 127 2
a 128 140 7
a 140 128 7
a 128 129 5
a 129 128 5
a 129 141 1
a 141 129 1
a 129 130 6
a 130 129 6
a 130 131 6
a 131 130 6
a 131 143 8
a 143 131 8
a 131 132 8
a 132 131 8
a 132 144 4
a 144 132 4
a 133 134 6
a 134 133 6
a 134 135 9
a 135 134 9
a 135 136 9
a 136 135 9
a 136 137 1
a 137 136 1
a 137 138 10
a 138 137 10
a 138 139 6
a 139 138 6
a 139 140 2
a 140 139 2
a 140 141 6
a 141 140 6
a 143 144 7
a 144 143 7
